50
20681

35 689
902 200
476 833
447 936
152 482
825 366
603 629
284 588
254 501
59 386
433 243
994 29
191 649
369 957
61 594
933 27
223 318
904 783
327 970
384 574
577 992
441 373
113 89
91 101
958 455
638 303
57 721
205 452
916 850
830 684
30 33
313 317
51 564
299 914
932 325
433 933
818 737
264 632
996 818
451 393
975 128
46 465
245 685
419 629
269 391
162 133
443 868
839 153
315 636
768 105
